* #variable= 48 #constraint= 16 #product= 96 sizeproduct= 192
min: -1 x1 x4 -1 x1 x10 +1 x1 x13 +1 x1 x37 -1 x2 x5 -1 x2 x11 +1 x2 x14 +1 x2 x38 -1 x3 x6 -1 x3 x12 +1 x3 x15 +1 x3 x39 +1 x4 x7 +1 x4 x16 -1 x4 x40 +1 x5 x8 +1 x5 x17 -1 x5 x41 +1 x6 x9 +1 x6 x18 -1 x6 x42 -1 x7 x10 +1 x7 x19 +1 x7 x43 -1 x8 x11 +1 x8 x20 +1 x8 x44 -1 x9 x12 +1 x9 x21 +1 x9 x45 -1 x10 x22 +1 x10 x46 -1 x11 x23 +1 x11 x47 -1 x12 x24 +1 x12 x48 -1 x13 x16 +1 x13 x22 -1 x13 x25 -1 x14 x17 +1 x14 x23 -1 x14 x26 -1 x15 x18 +1 x15 x24 -1 x15 x27 -1 x16 x19 +1 x16 x28 -1 x17 x20 +1 x17 x29 -1 x18 x21 +1 x18 x30 +1 x19 x22 -1 x19 x31 +1 x20 x23 -1 x20 x32 +1 x21 x24 -1 x21 x33 -1 x22 x34 -1 x23 x35 -1 x24 x36 +1 x25 x28 +1 x25 x34 -1 x25 x37 +1 x26 x29 +1 x26 x35 -1 x26 x38 +1 x27 x30 +1 x27 x36 -1 x27 x39 +1 x28 x31 +1 x28 x40 +1 x29 x32 +1 x29 x41 +1 x30 x33 +1 x30 x42 -1 x31 x34 -1 x31 x43 -1 x32 x35 -1 x32 x44 -1 x33 x36 -1 x33 x45 -1 x34 x46 -1 x35 x47 -1 x36 x48 +1 x37 x40 -1 x37 x46 +1 x38 x41 -1 x38 x47 +1 x39 x42 -1 x39 x48 -1 x40 x43 -1 x41 x44 -1 x42 x45 +1 x43 x46 +1 x44 x47 +1 x45 x48 ;
+1 x1 +1 x2 +1 x3 = 1 ;
+1 x4 +1 x5 +1 x6 = 1 ;
+1 x7 +1 x8 +1 x9 = 1 ;
+1 x10 +1 x11 +1 x12 = 1 ;
+1 x13 +1 x14 +1 x15 = 1 ;
+1 x16 +1 x17 +1 x18 = 1 ;
+1 x19 +1 x20 +1 x21 = 1 ;
+1 x22 +1 x23 +1 x24 = 1 ;
+1 x25 +1 x26 +1 x27 = 1 ;
+1 x28 +1 x29 +1 x30 = 1 ;
+1 x31 +1 x32 +1 x33 = 1 ;
+1 x34 +1 x35 +1 x36 = 1 ;
+1 x37 +1 x38 +1 x39 = 1 ;
+1 x40 +1 x41 +1 x42 = 1 ;
+1 x43 +1 x44 +1 x45 = 1 ;
+1 x46 +1 x47 +1 x48 = 1 ;
